c description: Random 5-CNF over 15 variables and 15 clauses
c generator: CNFgen (0.9.0)
c copyright: (C) 2012-2020 Massimo Lauria <massimo.lauria@uniroma1.it>
c url: https://massimolauria.net/cnfgen
c
p cnf 15 15
-5 6 -8 9 15 0
-3 4 -7 -9 11 0
4 6 -7 -8 -13 0
-2 -3 -4 5 11 0
-4 -7 8 11 14 0
1 -2 3 -7 12 0
4 7 11 -13 15 0
-3 5 9 -10 -12 0
1 8 10 -14 15 0
2 -4 9 11 -12 0
-1 -2 -7 9 -14 0
-2 7 -11 -12 -13 0
-1 2 -3 -5 -10 0
-2 -8 -10 13 15 0
-4 -5 -10 12 15 0